(set-logic HORN)
(declare-fun inv ((_ BitVec 8) (_ BitVec 8) (_ BitVec 8) ) Bool)
(assert (forall ((i (_ BitVec 8)) (sum (_ BitVec 8)) (n (_ BitVec 8))) 
       (=> ( and ( = sum (_ bv0 8) ) ( bvsge n (_ bv0 8) ) ( = i (_ bv0 8) ) ) (inv i sum n))))
(assert (forall ((i (_ BitVec 8)) (sum (_ BitVec 8)) (n (_ BitVec 8)) (i! (_ BitVec 8)) (sum! (_ BitVec 8)) (n! (_ BitVec 8))) 
       (=> (and (inv i sum n) ( or ( and ( bvslt i n ) ( = i! ( bvadd i (_ bv1 8) ) ) ( = sum! ( bvadd sum i ) ) ( = n! n ) ) ( and ( bvsge i n ) ( = i! i ) ( = sum! sum ) ( = n! n ) ) )) (inv i! sum! n!))))
(assert (forall ((i (_ BitVec 8)) (sum (_ BitVec 8)) (n (_ BitVec 8))) 
       (=> (inv i sum n) ( => ( bvsge i n ) ( bvsge sum (_ bv0 8) ) ))))
(check-sat)
